p edge 150 2235
e 1 9
e 1 10
e 1 16
e 1 19
e 1 24
e 1 27
e 1 28
e 1 38
e 1 39
e 1 51
e 1 53
e 1 60
e 1 65
e 1 68
e 1 74
e 1 83
e 1 85
e 1 90
e 1 92
e 1 93
e 1 96
e 1 109
e 1 120
e 1 127
e 1 128
e 1 136
e 1 138
e 1 141
e 1 142
e 1 146
e 2 4
e 2 11
e 2 14
e 2 19
e 2 35
e 2 43
e 2 44
e 2 46
e 2 53
e 2 56
e 2 60
e 2 61
e 2 63
e 2 64
e 2 68
e 2 70
e 2 77
e 2 86
e 2 96
e 2 97
e 2 100
e 2 101
e 2 105
e 2 113
e 2 119
e 2 122
e 2 125
e 2 127
e 2 142
e 2 144
e 2 145
e 3 6
e 3 14
e 3 18
e 3 25
e 3 64
e 3 66
e 3 68
e 3 73
e 3 81
e 3 85
e 3 87
e 3 88
e 3 89
e 3 93
e 3 103
e 3 109
e 3 131
e 3 135
e 3 138
e 3 142
e 3 145
e 3 147
e 4 12
e 4 18
e 4 20
e 4 21
e 4 27
e 4 32
e 4 33
e 4 34
e 4 36
e 4 49
e 4 51
e 4 52
e 4 57
e 4 59
e 4 62
e 4 63
e 4 67
e 4 77
e 4 81
e 4 83
e 4 85
e 4 90
e 4 100
e 4 113
e 4 123
e 4 133
e 4 134
e 4 137
e 4 141
e 4 145
e 4 146
e 4 149
e 5 9
e 5 10
e 5 11
e 5 18
e 5 20
e 5 21
e 5 23
e 5 24
e 5 30
e 5 32
e 5 35
e 5 36
e 5 38
e 5 52
e 5 55
e 5 57
e 5 64
e 5 73
e 5 83
e 5 92
e 5 94
e 5 96
e 5 121
e 5 132
e 5 134
e 5 144
e 6 7
e 6 8
e 6 14
e 6 15
e 6 16
e 6 26
e 6 32
e 6 34
e 6 35
e 6 36
e 6 41
e 6 47
e 6 57
e 6 61
e 6 74
e 6 75
e 6 79
e 6 87
e 6 90
e 6 93
e 6 108
e 6 110
e 6 115
e 6 117
e 6 123
e 6 126
e 6 127
e 6 136
e 6 142
e 6 144
e 6 145
e 6 149
e 6 150
e 7 9
e 7 11
e 7 21
e 7 23
e 7 24
e 7 28
e 7 33
e 7 35
e 7 38
e 7 45
e 7 53
e 7 55
e 7 64
e 7 75
e 7 97
e 7 108
e 7 111
e 7 112
e 7 113
e 7 118
e 7 121
e 7 125
e 7 129
e 7 132
e 7 135
e 7 138
e 7 143
e 7 145
e 8 9
e 8 15
e 8 22
e 8 30
e 8 41
e 8 42
e 8 55
e 8 56
e 8 60
e 8 61
e 8 66
e 8 68
e 8 75
e 8 80
e 8 84
e 8 89
e 8 92
e 8 94
e 8 99
e 8 108
e 8 111
e 8 112
e 8 114
e 8 127
e 8 132
e 8 139
e 8 140
e 8 142
e 8 143
e 8 148
e 8 149
e 9 16
e 9 19
e 9 22
e 9 24
e 9 25
e 9 30
e 9 33
e 9 35
e 9 36
e 9 44
e 9 67
e 9 70
e 9 74
e 9 77
e 9 91
e 9 106
e 9 115
e 9 122
e 9 123
e 9 126
e 9 131
e 9 132
e 9 135
e 9 137
e 9 140
e 10 11
e 10 26
e 10 30
e 10 34
e 10 35
e 10 45
e 10 48
e 10 50
e 10 51
e 10 57
e 10 61
e 10 65
e 10 66
e 10 70
e 10 71
e 10 73
e 10 82
e 10 86
e 10 93
e 10 116
e 10 122
e 10 127
e 10 128
e 10 133
e 10 135
e 10 136
e 10 140
e 10 143
e 10 149
e 11 13
e 11 14
e 11 19
e 11 21
e 11 35
e 11 37
e 11 41
e 11 61
e 11 67
e 11 68
e 11 69
e 11 72
e 11 75
e 11 79
e 11 82
e 11 84
e 11 85
e 11 89
e 11 90
e 11 93
e 11 100
e 11 106
e 11 114
e 11 125
e 11 127
e 11 130
e 11 133
e 11 135
e 11 139
e 11 145
e 11 146
e 12 18
e 12 24
e 12 27
e 12 31
e 12 35
e 12 38
e 12 48
e 12 49
e 12 52
e 12 53
e 12 60
e 12 63
e 12 65
e 12 66
e 12 69
e 12 77
e 12 80
e 12 89
e 12 92
e 12 95
e 12 106
e 12 107
e 12 114
e 12 125
e 12 129
e 12 131
e 12 132
e 12 144
e 13 15
e 13 19
e 13 21
e 13 26
e 13 33
e 13 36
e 13 41
e 13 47
e 13 52
e 13 60
e 13 63
e 13 73
e 13 82
e 13 84
e 13 85
e 13 89
e 13 92
e 13 94
e 13 96
e 13 99
e 13 115
e 13 130
e 13 131
e 13 137
e 13 139
e 13 141
e 13 144
e 13 146
e 14 18
e 14 25
e 14 31
e 14 47
e 14 52
e 14 59
e 14 63
e 14 69
e 14 73
e 14 74
e 14 76
e 14 78
e 14 85
e 14 87
e 14 88
e 14 90
e 14 99
e 14 101
e 14 105
e 14 113
e 14 117
e 14 119
e 14 126
e 14 137
e 14 138
e 14 139
e 14 143
e 14 145
e 14 147
e 15 24
e 15 28
e 15 33
e 15 41
e 15 44
e 15 57
e 15 58
e 15 59
e 15 60
e 15 61
e 15 66
e 15 68
e 15 72
e 15 73
e 15 75
e 15 79
e 15 92
e 15 99
e 15 100
e 15 106
e 15 110
e 15 118
e 15 122
e 15 123
e 15 124
e 15 129
e 15 132
e 15 141
e 15 142
e 15 143
e 15 149
e 15 150
e 16 21
e 16 28
e 16 30
e 16 48
e 16 53
e 16 54
e 16 57
e 16 60
e 16 63
e 16 68
e 16 72
e 16 77
e 16 83
e 16 84
e 16 104
e 16 106
e 16 108
e 16 109
e 16 111
e 16 117
e 16 120
e 16 121
e 16 122
e 16 126
e 16 137
e 16 138
e 16 146
e 17 18
e 17 27
e 17 38
e 17 43
e 17 45
e 17 55
e 17 75
e 17 77
e 17 78
e 17 89
e 17 91
e 17 92
e 17 94
e 17 100
e 17 103
e 17 113
e 17 121
e 17 127
e 17 129
e 17 131
e 17 133
e 17 134
e 17 137
e 17 138
e 17 146
e 17 149
e 18 20
e 18 22
e 18 23
e 18 25
e 18 27
e 18 32
e 18 40
e 18 43
e 18 47
e 18 48
e 18 52
e 18 61
e 18 65
e 18 70
e 18 76
e 18 87
e 18 91
e 18 92
e 18 93
e 18 97
e 18 100
e 18 111
e 18 115
e 18 118
e 18 120
e 18 128
e 18 129
e 18 130
e 18 131
e 18 146
e 19 20
e 19 22
e 19 33
e 19 36
e 19 37
e 19 45
e 19 46
e 19 51
e 19 53
e 19 55
e 19 58
e 19 62
e 19 64
e 19 65
e 19 70
e 19 74
e 19 76
e 19 83
e 19 85
e 19 97
e 19 98
e 19 99
e 19 103
e 19 106
e 19 121
e 19 126
e 19 137
e 20 30
e 20 44
e 20 52
e 20 63
e 20 65
e 20 69
e 20 70
e 20 77
e 20 78
e 20 94
e 20 97
e 20 99
e 20 101
e 20 103
e 20 104
e 20 109
e 20 118
e 20 119
e 20 120
e 20 123
e 20 128
e 20 129
e 20 132
e 20 135
e 21 24
e 21 28
e 21 30
e 21 33
e 21 48
e 21 50
e 21 58
e 21 64
e 21 67
e 21 69
e 21 73
e 21 78
e 21 79
e 21 80
e 21 82
e 21 97
e 21 98
e 21 115
e 21 120
e 21 122
e 21 123
e 21 124
e 21 129
e 21 133
e 21 143
e 21 150
e 22 24
e 22 26
e 22 28
e 22 38
e 22 39
e 22 44
e 22 46
e 22 49
e 22 55
e 22 56
e 22 64
e 22 65
e 22 82
e 22 88
e 22 89
e 22 96
e 22 103
e 22 109
e 22 110
e 22 112
e 22 117
e 22 125
e 22 131
e 22 136
e 22 137
e 22 138
e 22 139
e 22 142
e 22 147
e 22 149
e 23 26
e 23 27
e 23 30
e 23 46
e 23 48
e 23 55
e 23 56
e 23 57
e 23 58
e 23 59
e 23 60
e 23 62
e 23 63
e 23 67
e 23 70
e 23 73
e 23 74
e 23 97
e 23 98
e 23 103
e 23 104
e 23 106
e 23 107
e 23 111
e 23 115
e 23 121
e 23 129
e 23 133
e 23 136
e 23 140
e 23 142
e 23 147
e 24 27
e 24 32
e 24 36
e 24 37
e 24 41
e 24 43
e 24 44
e 24 54
e 24 57
e 24 58
e 24 60
e 24 72
e 24 75
e 24 77
e 24 91
e 24 94
e 24 100
e 24 101
e 24 102
e 24 106
e 24 115
e 24 116
e 24 117
e 24 119
e 24 137
e 24 144
e 24 147
e 24 149
e 25 26
e 25 28
e 25 30
e 25 43
e 25 44
e 25 48
e 25 50
e 25 63
e 25 65
e 25 72
e 25 76
e 25 81
e 25 89
e 25 95
e 25 107
e 25 112
e 25 120
e 25 123
e 25 124
e 25 125
e 25 131
e 25 136
e 25 139
e 25 146
e 25 149
e 26 28
e 26 40
e 26 44
e 26 49
e 26 52
e 26 54
e 26 56
e 26 70
e 26 71
e 26 81
e 26 86
e 26 88
e 26 90
e 26 93
e 26 98
e 26 108
e 26 109
e 26 110
e 26 121
e 26 122
e 26 124
e 26 127
e 26 128
e 26 132
e 26 135
e 26 136
e 26 139
e 26 146
e 26 148
e 27 33
e 27 41
e 27 44
e 27 45
e 27 48
e 27 58
e 27 59
e 27 60
e 27 62
e 27 63
e 27 67
e 27 77
e 27 83
e 27 90
e 27 98
e 27 101
e 27 105
e 27 139
e 27 144
e 27 146
e 27 150
e 28 34
e 28 42
e 28 48
e 28 49
e 28 50
e 28 55
e 28 57
e 28 62
e 28 67
e 28 77
e 28 105
e 28 107
e 28 125
e 28 127
e 28 135
e 28 142
e 28 144
e 28 148
e 29 47
e 29 49
e 29 52
e 29 55
e 29 57
e 29 69
e 29 72
e 29 85
e 29 94
e 29 98
e 29 113
e 29 123
e 29 124
e 29 127
e 29 135
e 29 141
e 29 143
e 29 149
e 30 33
e 30 36
e 30 56
e 30 58
e 30 61
e 30 63
e 30 65
e 30 70
e 30 71
e 30 73
e 30 80
e 30 81
e 30 83
e 30 101
e 30 103
e 30 113
e 30 124
e 30 125
e 30 131
e 30 132
e 30 137
e 30 138
e 30 146
e 31 32
e 31 33
e 31 35
e 31 36
e 31 37
e 31 44
e 31 47
e 31 48
e 31 53
e 31 55
e 31 66
e 31 71
e 31 91
e 31 92
e 31 93
e 31 94
e 31 95
e 31 99
e 31 105
e 31 106
e 31 109
e 31 110
e 31 125
e 31 136
e 31 141
e 32 39
e 32 49
e 32 54
e 32 64
e 32 67
e 32 78
e 32 94
e 32 97
e 32 98
e 32 99
e 32 102
e 32 104
e 32 105
e 32 109
e 32 113
e 32 116
e 32 118
e 32 123
e 32 127
e 32 138
e 32 150
e 33 42
e 33 47
e 33 48
e 33 53
e 33 57
e 33 59
e 33 62
e 33 66
e 33 70
e 33 76
e 33 80
e 33 83
e 33 90
e 33 91
e 33 94
e 33 97
e 33 101
e 33 102
e 33 104
e 33 105
e 33 110
e 33 111
e 33 123
e 33 133
e 33 137
e 33 140
e 33 147
e 34 36
e 34 40
e 34 41
e 34 62
e 34 71
e 34 77
e 34 88
e 34 99
e 34 102
e 34 118
e 34 127
e 34 137
e 34 139
e 34 143
e 34 146
e 35 38
e 35 46
e 35 62
e 35 67
e 35 83
e 35 84
e 35 88
e 35 89
e 35 90
e 35 91
e 35 93
e 35 97
e 35 112
e 35 116
e 35 121
e 35 131
e 35 136
e 35 138
e 35 144
e 35 147
e 36 53
e 36 55
e 36 58
e 36 65
e 36 68
e 36 73
e 36 77
e 36 82
e 36 84
e 36 95
e 36 96
e 36 99
e 36 113
e 36 119
e 36 134
e 36 135
e 36 137
e 36 142
e 37 42
e 37 45
e 37 47
e 37 63
e 37 72
e 37 79
e 37 86
e 37 94
e 37 104
e 37 107
e 37 109
e 37 123
e 37 132
e 37 133
e 37 138
e 37 140
e 37 143
e 37 146
e 38 40
e 38 48
e 38 51
e 38 52
e 38 63
e 38 65
e 38 68
e 38 82
e 38 83
e 38 104
e 38 111
e 38 113
e 38 114
e 38 145
e 38 146
e 39 40
e 39 42
e 39 48
e 39 58
e 39 62
e 39 69
e 39 74
e 39 80
e 39 85
e 39 87
e 39 90
e 39 93
e 39 99
e 39 102
e 39 105
e 39 106
e 39 111
e 39 114
e 39 115
e 39 123
e 39 126
e 39 129
e 39 137
e 39 139
e 39 146
e 40 42
e 40 43
e 40 47
e 40 48
e 40 54
e 40 57
e 40 77
e 40 81
e 40 83
e 40 84
e 40 87
e 40 95
e 40 101
e 40 109
e 40 111
e 40 112
e 40 116
e 40 117
e 40 123
e 40 130
e 40 142
e 40 143
e 40 145
e 41 47
e 41 48
e 41 58
e 41 64
e 41 75
e 41 77
e 41 87
e 41 89
e 41 95
e 41 101
e 41 118
e 41 124
e 41 128
e 41 132
e 41 139
e 41 140
e 41 148
e 42 49
e 42 56
e 42 63
e 42 64
e 42 65
e 42 67
e 42 68
e 42 71
e 42 75
e 42 77
e 42 78
e 42 81
e 42 83
e 42 86
e 42 90
e 42 94
e 42 95
e 42 97
e 42 106
e 42 112
e 42 116
e 42 118
e 42 128
e 42 130
e 42 136
e 42 139
e 42 143
e 43 49
e 43 51
e 43 53
e 43 54
e 43 66
e 43 73
e 43 77
e 43 85
e 43 88
e 43 93
e 43 107
e 43 112
e 43 113
e 43 126
e 43 127
e 43 133
e 43 140
e 43 145
e 43 146
e 44 48
e 44 57
e 44 60
e 44 64
e 44 70
e 44 79
e 44 80
e 44 82
e 44 84
e 44 90
e 44 98
e 44 106
e 44 108
e 44 109
e 44 114
e 44 119
e 44 127
e 44 128
e 44 129
e 44 134
e 44 137
e 45 46
e 45 59
e 45 60
e 45 66
e 45 71
e 45 76
e 45 82
e 45 89
e 45 90
e 45 93
e 45 99
e 45 106
e 45 109
e 45 110
e 45 119
e 45 121
e 45 128
e 45 133
e 45 150
e 46 60
e 46 61
e 46 68
e 46 69
e 46 71
e 46 81
e 46 82
e 46 85
e 46 93
e 46 95
e 46 96
e 46 100
e 46 103
e 46 105
e 46 106
e 46 109
e 46 120
e 46 123
e 46 125
e 46 129
e 46 131
e 46 136
e 46 138
e 46 139
e 46 142
e 47 57
e 47 61
e 47 63
e 47 65
e 47 66
e 47 71
e 47 72
e 47 81
e 47 82
e 47 87
e 47 88
e 47 94
e 47 97
e 47 98
e 47 99
e 47 104
e 47 106
e 47 125
e 47 126
e 47 130
e 48 55
e 48 56
e 48 73
e 48 76
e 48 77
e 48 78
e 48 79
e 48 84
e 48 91
e 48 95
e 48 96
e 48 104
e 48 121
e 48 125
e 48 127
e 48 128
e 48 143
e 48 144
e 48 146
e 49 50
e 49 51
e 49 72
e 49 73
e 49 77
e 49 79
e 49 85
e 49 87
e 49 100
e 49 104
e 49 112
e 49 123
e 49 130
e 49 131
e 49 138
e 49 139
e 49 143
e 49 150
e 50 54
e 50 62
e 50 66
e 50 71
e 50 80
e 50 82
e 50 83
e 50 85
e 50 89
e 50 100
e 50 105
e 50 108
e 50 112
e 50 113
e 50 115
e 50 116
e 50 117
e 50 121
e 50 123
e 50 125
e 50 132
e 50 136
e 50 139
e 50 146
e 50 147
e 50 148
e 51 52
e 51 54
e 51 55
e 51 56
e 51 66
e 51 68
e 51 71
e 51 75
e 51 85
e 51 91
e 51 93
e 51 95
e 51 99
e 51 100
e 51 120
e 51 128
e 51 129
e 51 131
e 51 141
e 51 145
e 52 56
e 52 66
e 52 76
e 52 89
e 52 102
e 52 108
e 52 109
e 52 117
e 52 120
e 52 128
e 52 140
e 52 143
e 52 146
e 52 150
e 53 55
e 53 58
e 53 63
e 53 65
e 53 79
e 53 81
e 53 84
e 53 89
e 53 97
e 53 99
e 53 102
e 53 107
e 53 109
e 53 110
e 53 119
e 53 124
e 53 133
e 53 146
e 54 56
e 54 68
e 54 72
e 54 76
e 54 82
e 54 84
e 54 88
e 54 89
e 54 95
e 54 100
e 54 116
e 54 135
e 55 61
e 55 64
e 55 65
e 55 66
e 55 77
e 55 78
e 55 79
e 55 87
e 55 92
e 55 96
e 55 99
e 55 107
e 55 112
e 55 118
e 55 119
e 55 129
e 55 132
e 55 133
e 55 136
e 55 142
e 55 143
e 55 148
e 56 58
e 56 59
e 56 65
e 56 77
e 56 80
e 56 82
e 56 91
e 56 94
e 56 98
e 56 99
e 56 102
e 56 104
e 56 110
e 56 111
e 56 119
e 56 127
e 56 134
e 56 135
e 56 136
e 56 139
e 56 146
e 56 148
e 57 62
e 57 73
e 57 81
e 57 106
e 57 108
e 57 110
e 57 114
e 57 118
e 57 136
e 57 150
e 58 63
e 58 66
e 58 68
e 58 69
e 58 70
e 58 71
e 58 73
e 58 76
e 58 77
e 58 78
e 58 79
e 58 80
e 58 83
e 58 98
e 58 102
e 58 108
e 58 117
e 58 125
e 58 126
e 58 138
e 58 145
e 58 147
e 58 148
e 59 67
e 59 69
e 59 70
e 59 72
e 59 73
e 59 76
e 59 77
e 59 83
e 59 89
e 59 102
e 59 107
e 59 108
e 59 113
e 59 115
e 59 132
e 59 134
e 59 135
e 59 136
e 59 138
e 59 139
e 59 144
e 60 61
e 60 62
e 60 63
e 60 66
e 60 70
e 60 77
e 60 79
e 60 83
e 60 84
e 60 87
e 60 90
e 60 99
e 60 100
e 60 106
e 60 111
e 60 115
e 60 116
e 60 119
e 60 120
e 60 122
e 60 131
e 60 142
e 60 145
e 60 149
e 61 71
e 61 74
e 61 78
e 61 84
e 61 90
e 61 91
e 61 95
e 61 96
e 61 97
e 61 99
e 61 109
e 61 112
e 61 113
e 61 115
e 61 117
e 61 121
e 61 125
e 61 128
e 61 150
e 62 67
e 62 88
e 62 91
e 62 96
e 62 99
e 62 105
e 62 128
e 62 135
e 62 137
e 62 147
e 62 148
e 63 64
e 63 71
e 63 72
e 63 74
e 63 83
e 63 85
e 63 86
e 63 95
e 63 99
e 63 117
e 63 122
e 63 125
e 63 137
e 63 147
e 63 150
e 64 69
e 64 71
e 64 72
e 64 73
e 64 78
e 64 83
e 64 84
e 64 85
e 64 87
e 64 90
e 64 93
e 64 94
e 64 98
e 64 100
e 64 101
e 64 102
e 64 111
e 64 115
e 64 118
e 64 125
e 64 127
e 64 138
e 64 142
e 64 143
e 64 147
e 65 66
e 65 69
e 65 77
e 65 88
e 65 91
e 65 92
e 65 96
e 65 111
e 65 117
e 65 119
e 65 125
e 65 127
e 65 128
e 65 130
e 65 138
e 65 143
e 65 150
e 66 73
e 66 76
e 66 77
e 66 78
e 66 80
e 66 82
e 66 84
e 66 85
e 66 88
e 66 91
e 66 94
e 66 96
e 66 97
e 66 101
e 66 105
e 66 106
e 66 111
e 66 113
e 66 120
e 66 126
e 66 130
e 66 143
e 66 146
e 67 70
e 67 73
e 67 76
e 67 84
e 67 97
e 67 102
e 67 110
e 67 111
e 67 119
e 67 120
e 67 124
e 67 131
e 67 132
e 67 143
e 68 71
e 68 72
e 68 74
e 68 80
e 68 81
e 68 84
e 68 85
e 68 89
e 68 92
e 68 95
e 68 100
e 68 111
e 68 118
e 68 125
e 68 126
e 68 128
e 68 129
e 68 131
e 68 134
e 68 136
e 68 138
e 68 139
e 68 140
e 68 144
e 68 145
e 69 71
e 69 80
e 69 81
e 69 85
e 69 88
e 69 89
e 69 90
e 69 92
e 69 100
e 69 112
e 69 124
e 69 126
e 69 132
e 69 143
e 69 145
e 70 80
e 70 100
e 70 101
e 70 102
e 70 110
e 70 111
e 70 114
e 70 125
e 70 133
e 70 137
e 70 138
e 70 141
e 70 146
e 70 147
e 70 150
e 71 75
e 71 77
e 71 82
e 71 84
e 71 85
e 71 89
e 71 90
e 71 99
e 71 107
e 71 112
e 71 113
e 71 129
e 71 131
e 71 136
e 71 140
e 71 141
e 71 150
e 72 90
e 72 92
e 72 98
e 72 106
e 72 110
e 72 111
e 72 112
e 72 116
e 72 117
e 72 122
e 72 123
e 72 127
e 72 129
e 72 134
e 72 139
e 72 145
e 72 147
e 72 150
e 73 75
e 73 76
e 73 83
e 73 85
e 73 86
e 73 88
e 73 89
e 73 92
e 73 96
e 73 99
e 73 108
e 73 111
e 73 113
e 73 118
e 73 121
e 73 122
e 73 128
e 73 135
e 73 136
e 73 137
e 73 150
e 74 77
e 74 79
e 74 83
e 74 86
e 74 89
e 74 95
e 74 96
e 74 98
e 74 103
e 74 104
e 74 106
e 74 107
e 74 119
e 74 120
e 74 127
e 74 129
e 74 135
e 74 144
e 74 149
e 75 88
e 75 97
e 75 109
e 75 116
e 75 117
e 75 119
e 75 124
e 75 143
e 75 149
e 76 79
e 76 86
e 76 89
e 76 102
e 76 107
e 76 110
e 76 118
e 76 122
e 76 130
e 76 132
e 76 137
e 77 78
e 77 82
e 77 84
e 77 86
e 77 90
e 77 91
e 77 92
e 77 95
e 77 97
e 77 98
e 77 112
e 77 118
e 77 123
e 77 125
e 77 126
e 77 127
e 77 130
e 77 131
e 77 140
e 77 145
e 77 146
e 78 86
e 78 89
e 78 97
e 78 116
e 78 117
e 78 122
e 78 126
e 78 127
e 78 139
e 78 141
e 78 144
e 78 146
e 78 149
e 79 83
e 79 86
e 79 92
e 79 115
e 79 117
e 79 123
e 79 125
e 79 126
e 79 127
e 79 129
e 79 130
e 79 132
e 79 142
e 79 143
e 79 144
e 79 150
e 80 81
e 80 84
e 80 85
e 80 86
e 80 101
e 80 114
e 80 124
e 80 130
e 80 133
e 80 134
e 80 145
e 81 86
e 81 90
e 81 99
e 81 100
e 81 104
e 81 113
e 81 115
e 81 123
e 81 134
e 81 137
e 81 139
e 81 141
e 81 146
e 82 90
e 82 94
e 82 103
e 82 113
e 82 115
e 82 119
e 82 122
e 82 126
e 82 133
e 82 138
e 82 141
e 82 146
e 82 147
e 83 92
e 83 95
e 83 103
e 83 104
e 83 109
e 83 110
e 83 111
e 83 113
e 83 122
e 83 124
e 83 130
e 83 134
e 84 94
e 84 96
e 84 100
e 84 103
e 84 112
e 84 117
e 84 127
e 84 131
e 84 137
e 84 140
e 84 144
e 84 146
e 84 149
e 84 150
e 85 94
e 85 103
e 85 105
e 85 108
e 85 109
e 85 117
e 85 119
e 85 125
e 85 126
e 85 130
e 85 133
e 85 136
e 85 137
e 85 143
e 86 98
e 86 105
e 86 106
e 86 107
e 86 109
e 86 110
e 86 114
e 86 118
e 86 120
e 86 121
e 86 127
e 86 128
e 86 131
e 86 134
e 86 136
e 86 137
e 86 139
e 86 142
e 86 150
e 87 94
e 87 103
e 87 106
e 87 107
e 87 109
e 87 114
e 87 120
e 87 127
e 87 129
e 87 141
e 87 149
e 88 95
e 88 96
e 88 100
e 88 105
e 88 109
e 88 110
e 88 112
e 88 113
e 88 124
e 88 127
e 88 128
e 88 134
e 88 136
e 88 138
e 88 142
e 88 146
e 88 147
e 89 90
e 89 96
e 89 103
e 89 105
e 89 109
e 89 110
e 89 111
e 89 115
e 89 117
e 89 119
e 89 121
e 89 122
e 89 126
e 89 128
e 89 143
e 89 145
e 89 147
e 90 93
e 90 96
e 90 98
e 90 104
e 90 108
e 90 117
e 90 123
e 90 124
e 90 130
e 90 131
e 90 136
e 90 139
e 90 149
e 90 150
e 91 92
e 91 106
e 91 111
e 91 119
e 91 123
e 91 131
e 91 134
e 91 144
e 92 93
e 92 107
e 92 112
e 92 118
e 92 124
e 93 98
e 93 100
e 93 106
e 93 113
e 93 127
e 94 98
e 94 99
e 94 101
e 94 106
e 94 110
e 94 119
e 94 120
e 94 121
e 94 134
e 94 138
e 95 97
e 95 99
e 95 103
e 95 109
e 95 114
e 95 117
e 95 118
e 95 120
e 95 125
e 95 132
e 95 142
e 95 145
e 95 146
e 96 101
e 96 107
e 96 110
e 96 118
e 96 128
e 96 131
e 96 134
e 96 147
e 96 148
e 96 150
e 97 106
e 97 107
e 97 112
e 97 114
e 97 119
e 97 122
e 97 135
e 97 142
e 97 147
e 98 101
e 98 109
e 98 117
e 98 119
e 98 128
e 98 133
e 98 135
e 98 137
e 98 145
e 98 148
e 98 149
e 98 150
e 99 105
e 99 109
e 99 123
e 99 124
e 99 126
e 99 129
e 99 131
e 99 134
e 99 136
e 99 149
e 99 150
e 100 105
e 100 107
e 100 110
e 100 112
e 100 121
e 100 129
e 100 136
e 100 138
e 100 144
e 100 145
e 100 150
e 101 106
e 101 109
e 101 111
e 101 112
e 101 113
e 101 117
e 101 118
e 101 121
e 101 122
e 101 123
e 101 130
e 101 134
e 101 144
e 102 104
e 102 106
e 102 111
e 102 128
e 102 130
e 102 132
e 102 133
e 102 134
e 102 143
e 102 144
e 102 145
e 102 147
e 103 112
e 103 119
e 103 124
e 103 128
e 103 129
e 103 133
e 103 141
e 103 143
e 103 144
e 104 105
e 104 106
e 104 111
e 104 121
e 104 129
e 104 150
e 105 108
e 105 111
e 105 112
e 105 115
e 105 119
e 105 129
e 105 133
e 105 137
e 105 139
e 105 145
e 105 149
e 105 150
e 106 119
e 106 124
e 106 138
e 107 108
e 107 119
e 107 123
e 107 126
e 107 130
e 107 138
e 107 146
e 107 150
e 108 109
e 108 110
e 108 112
e 108 117
e 108 128
e 108 135
e 108 138
e 108 139
e 108 146
e 108 147
e 109 110
e 109 114
e 109 120
e 109 122
e 109 123
e 109 126
e 109 133
e 109 136
e 109 137
e 110 114
e 110 116
e 110 119
e 110 123
e 110 128
e 110 133
e 110 145
e 111 114
e 111 121
e 111 122
e 111 124
e 111 128
e 111 129
e 111 135
e 111 139
e 111 140
e 111 145
e 112 117
e 112 121
e 112 126
e 112 127
e 112 150
e 113 116
e 113 119
e 113 144
e 114 115
e 114 116
e 114 119
e 114 133
e 114 143
e 114 144
e 114 150
e 115 121
e 115 126
e 115 131
e 115 143
e 115 147
e 115 150
e 116 121
e 116 124
e 116 141
e 116 148
e 117 126
e 117 139
e 117 144
e 118 119
e 118 132
e 118 141
e 118 145
e 119 121
e 119 134
e 119 135
e 119 138
e 119 139
e 119 145
e 119 149
e 120 130
e 120 137
e 120 138
e 120 139
e 120 149
e 121 125
e 121 127
e 121 136
e 121 140
e 121 142
e 121 146
e 121 148
e 122 130
e 122 140
e 122 148
e 123 130
e 123 131
e 123 132
e 123 134
e 123 141
e 123 146
e 123 147
e 124 126
e 124 129
e 124 132
e 124 140
e 124 143
e 125 136
e 125 149
e 125 150
e 126 127
e 126 128
e 126 132
e 126 135
e 126 139
e 126 144
e 126 146
e 126 147
e 126 150
e 127 131
e 127 132
e 127 135
e 127 138
e 127 149
e 128 135
e 128 139
e 128 143
e 128 146
e 129 141
e 130 135
e 130 138
e 130 139
e 130 140
e 130 141
e 130 149
e 131 139
e 131 140
e 131 148
e 131 149
e 131 150
e 132 133
e 132 135
e 132 136
e 132 140
e 132 142
e 132 143
e 132 148
e 133 135
e 133 144
e 133 148
e 133 150
e 134 139
e 134 145
e 134 149
e 135 139
e 135 141
e 135 142
e 135 143
e 136 137
e 136 138
e 136 139
e 136 140
e 136 142
e 136 144
e 136 146
e 137 143
e 137 147
e 137 148
e 138 140
e 138 142
e 138 146
e 139 141
e 139 150
e 142 144
e 144 147
e 145 147
e 146 150
e 147 149
e 147 150
e 148 150
e 149 150
